c A SAT instance generated from a 3-CNF formula that had 33 clauses and 11 variables
p cnf 11 33
-4 -3 -6 0
5 -4 -8 0
1 -7 -2 0
-5 -4 -8 0
9 -10 11 0
-5 6 -1 0
3 -7 11 0
-4 -2 9 0
1 -4 -10 0
5 -1 10 0
-8 -9 -7 0
7 4 -10 0
-5 8 3 0
6 4 5 0
9 -11 -5 0
-10 -7 -2 0
-4 -10 9 0
-6 8 -11 0
-4 10 5 0
6 2 -3 0
-11 2 -4 0
-1 6 10 0
-4 -9 -5 0
6 -4 -11 0
1 11 -2 0
1 4 -5 0
2 -11 7 0
5 -3 -7 0
-11 5 -10 0
-3 5 -6 0
-7 9 -8 0
-2 7 5 0
-3 5 -4 0
